13 7 18 17 14 1 11 5 6 
8 20 9 2 20 5 3 10 3 
7 15 9 2 8 6 6 5 9 
16 13 11 1 6 8 17 14 13 
4 17 16 8 12 17 12 14 19 
10 18 17 16 13 3 20 13 16 
15 15 11 12 19 19 7 15 17 
20 10 2 8 12 1 6 10 7 
2 16 4 10 1 13 2 16 1 
